SPARKNaCl/why3-z3/sparknacl-sign.adb_384_23_index_check2_1.smt2
;; produced by z3_gnatprove.drv ;;
(set-info :smt-lib-version 2.5)
(set-info :source |VC generated by SPARK 2014|)
(set-info :category industrial)
(set-info :status unknown)
;;; generated by SMT-LIB2 driver
;;; SMT-LIB2 driver: bit-vectors, common part
;;; SMT-LIB2: integer arithmetic
(define-fun __cdiv ((x Int) (y Int)) Int (ite (>= x 0) (div x y) (- (div (- x) y))))
(define-fun __cmod ((x Int) (y Int)) Int (ite (>= x 0) (mod x y) (- (mod (- x) y))))
(declare-datatypes ()
  ((int__ref (int__refqtmk (int__content Int)))))

(declare-sort i64 0)

;; "i64'int"
(declare-fun i64qtint (i64) Int)

;; "i64'axiom"
(assert
  (forall ((i i64))
    (and
      (<= (- 9223372036854775808) (i64qtint i))
      (<= (i64qtint i) 9223372036854775807))))

;; "in_range"
(define-fun in_range ((x Int)) Bool
  (and (<= (- 9223372036854775808) x) (<= x 9223372036854775807)))

;; "to_rep"
(define-fun to_rep ((x i64)) Int
  (i64qtint x))

;; "of_rep"
(declare-fun of_rep (Int) i64)

;; "inversion_axiom"
(assert
  (forall ((x i64)) (! (= (of_rep (to_rep x)) x) :pattern ((to_rep x)) )))

;; "range_axiom"
(assert (forall ((x i64)) (! (in_range (to_rep x)) :pattern ((to_rep x)) )))

;; "coerce_axiom"
(assert
  (forall ((x Int))
    (! (=> (in_range x) (= (to_rep (of_rep x)) x)) :pattern ((to_rep
                                                               (of_rep x))) )))

(declare-sort map1 0)

;; "has_bounds"
(declare-fun has_bounds (map1
  Int
  Int) Bool)

;; "get"
(declare-fun get (map1
  Int) i64)

(declare-const x map1)

(declare-sort l16_limb 0)

;; "l16_limb'int"
(declare-fun l16_limbqtint (l16_limb) Int)

;; "l16_limb'axiom"
(assert
  (forall ((i l16_limb))
    (and (<= 0 (l16_limbqtint i)) (<= (l16_limbqtint i) 3984))))

;; "in_range"
(define-fun in_range1 ((x1 Int)) Bool
  (and (<= 0 x1) (<= x1 3984)))

;; "to_rep"
(define-fun to_rep1 ((x1 l16_limb)) Int
  (l16_limbqtint x1))

;; "of_rep"
(declare-fun of_rep1 (Int) l16_limb)

;; "inversion_axiom"
(assert
  (forall ((x1 l16_limb))
    (! (= (of_rep1 (to_rep1 x1)) x1) :pattern ((to_rep1 x1)) )))

;; "range_axiom"
(assert
  (forall ((x1 l16_limb))
    (! (in_range1 (to_rep1 x1)) :pattern ((to_rep1 x1)) )))

;; "coerce_axiom"
(assert
  (forall ((x1 Int))
    (! (=> (in_range1 x1) (= (to_rep1 (of_rep1 x1)) x1)) :pattern ((to_rep1
                                                                    (of_rep1
                                                                    x1))) )))

(declare-sort map2 0)

;; "has_bounds"
(declare-fun has_bounds1 (map2
  Int
  Int) Bool)

;; "get"
(declare-fun get1 (map2
  Int) l16_limb)

(declare-const l16 map2)

(declare-sort xl_limb 0)

;; "xl_limb'int"
(declare-fun xl_limbqtint (xl_limb) Int)

;; "xl_limb'axiom"
(assert
  (forall ((i xl_limb))
    (and
      (<= (- 33299444949360) (xl_limbqtint i))
      (<= (xl_limbqtint i) 33299444949360))))

;; "in_range"
(define-fun in_range2 ((x1 Int)) Bool
  (and (<= (- 33299444949360) x1) (<= x1 33299444949360)))

;; "to_rep"
(define-fun to_rep2 ((x1 xl_limb)) Int
  (xl_limbqtint x1))

;; "of_rep"
(declare-fun of_rep2 (Int) xl_limb)

;; "inversion_axiom"
(assert
  (forall ((x1 xl_limb))
    (! (= (of_rep2 (to_rep2 x1)) x1) :pattern ((to_rep2 x1)) )))

;; "range_axiom"
(assert
  (forall ((x1 xl_limb))
    (! (in_range2 (to_rep2 x1)) :pattern ((to_rep2 x1)) )))

;; "coerce_axiom"
(assert
  (forall ((x1 Int))
    (! (=> (in_range2 x1) (= (to_rep2 (of_rep2 x1)) x1)) :pattern ((to_rep2
                                                                    (of_rep2
                                                                    x1))) )))

(declare-sort map3 0)

(declare-datatypes ()
  ((map__ref (map__refqtmk (map__content map3)))))

;; "has_bounds"
(declare-fun has_bounds2 (map3
  Int
  Int) Bool)

;; "get"
(declare-fun get2 (map3
  Int) xl_limb)

;; "set"
(declare-fun set (map3
  Int
  xl_limb) map3)

;; "set_eq"
(assert
  (forall ((a map3) (i Int) (v xl_limb))
    (! (= (get2 (set a i v) i) v) :pattern ((set a i v)) )))

;; "set_neq"
(assert
  (forall ((a map3) (i Int) (v xl_limb))
    (! (forall ((j Int))
         (! (=> (not (= i j)) (= (get2 (set a i v) j) (get2 a j))) :pattern (
         (get2
           a
           j)) :pattern ((get2 (set a i v) j)) )) :pattern ((set a i v)) )))

;; "set_has_bounds"
(assert
  (forall ((a map3) (i Int) (f Int) (l Int) (v xl_limb))
    (! (=>
         (and (<= f i) (<= i l))
         (=> (has_bounds2 a f l) (has_bounds2 (set a i v) f l))) :pattern (
    (has_bounds2
      (set a i v)
      f
      l)) )))

;; "power"
(declare-fun power (Int
  Int) Int)

;; "Power_0"
(assert (forall ((x1 Int)) (= (power x1 0) 1)))

;; "Power_s"
(assert
  (forall ((x1 Int) (n Int))
    (=> (<= 0 n) (= (power x1 (+ n 1)) (* x1 (power x1 n))))))

;; "Power_s_alt"
(assert
  (forall ((x1 Int) (n Int))
    (=> (< 0 n) (= (power x1 n) (* x1 (power x1 (- n 1)))))))

;; "Power_1"
(assert (forall ((x1 Int)) (= (power x1 1) x1)))

;; "Power_sum"
(assert
  (forall ((x1 Int) (n Int) (m Int))
    (=>
      (<= 0 n)
      (=> (<= 0 m) (= (power x1 (+ n m)) (* (power x1 n) (power x1 m)))))))

;; "Power_mult"
(assert
  (forall ((x1 Int) (n Int) (m Int))
    (=> (<= 0 n) (=> (<= 0 m) (= (power x1 (* n m)) (power (power x1 n) m))))))

;; "Power_comm1"
(assert
  (forall ((x1 Int) (y Int))
    (=>
      (= (* x1 y) (* y x1))
      (forall ((n Int))
        (=> (<= 0 n) (= (* (power x1 n) y) (* y (power x1 n))))))))

;; "Power_comm2"
(assert
  (forall ((x1 Int) (y Int))
    (=>
      (= (* x1 y) (* y x1))
      (forall ((n Int))
        (=> (<= 0 n) (= (power (* x1 y) n) (* (power x1 n) (power y n))))))))

;; "Power_non_neg"
(assert
  (forall ((x1 Int) (y Int))
    (=> (and (<= 0 x1) (<= 0 y)) (<= 0 (power x1 y)))))

;; "Power_pos"
(assert
  (forall ((x1 Int) (y Int)) (=> (and (< 0 x1) (<= 0 y)) (< 0 (power x1 y)))))

;; "Power_monotonic"
(assert
  (forall ((x1 Int) (n Int) (m Int))
    (=>
      (and (< 0 x1) (and (<= 0 n) (<= n m)))
      (<= (power x1 n) (power x1 m)))))

;; "shift_right_arithmetic"
(define-fun shift_right_arithmetic ((x1 Int) (n Int) (us Int)) Int
  (ite (< x1 0) (- (__cdiv (+ x1 1) (power 2 n)) 1) (__cdiv x1 (power 2 n))))

;; "asr_8"
(declare-fun asr_8 (Int) Int)

;; "asr_8__function_guard"
(declare-fun asr_8__function_guard (Int
  Int) Bool)

;; "ada___sparknacl__sign__l16__aggregate_def"
(declare-fun ada___sparknacl__sign__l16__aggregate_def (Int
  Int
  Int
  Int
  Int
  Int
  Int
  Int
  Int
  Int
  Int
  Int
  Int
  Int
  Int
  Int
  Int
  Int
  Int
  Int
  Int
  Int
  Int
  Int
  Int
  Int
  Int
  Int
  Int
  Int
  Int
  Int) map2)

;; "in_range"
(define-fun in_range3 ((x1 Int)) Bool
  (and (<= 0 x1) (<= x1 8290923120)))

;; "in_range"
(define-fun in_range4 ((x1 Int)) Bool
  (and (<= (- 32513424) x1) (<= x1 8161)))

;; "l16__def_axiom"
(assert
  (= l16 (let ((temp___410 (ada___sparknacl__sign__l16__aggregate_def
                             3792
                             3376
                             3920
                             1472
                             416
                             1584
                             288
                             1408
                             3424
                             2496
                             3952
                             2592
                             3552
                             3984
                             3552
                             320
                             0
                             0
                             0
                             0
                             0
                             0
                             0
                             0
                             0
                             0
                             0
                             0
                             0
                             0
                             0
                             256)))
           (let ((temp___411 temp___410)) temp___411))))

(declare-const rliteral l16_limb)

;; "rliteral_axiom"
(assert (= (l16_limbqtint rliteral) 3792))

(declare-const rliteral1 l16_limb)

;; "rliteral_axiom"
(assert (= (l16_limbqtint rliteral1) 3376))

(declare-const rliteral2 l16_limb)

;; "rliteral_axiom"
(assert (= (l16_limbqtint rliteral2) 3920))

(declare-const rliteral3 l16_limb)

;; "rliteral_axiom"
(assert (= (l16_limbqtint rliteral3) 1472))

(declare-const rliteral4 l16_limb)

;; "rliteral_axiom"
(assert (= (l16_limbqtint rliteral4) 416))

(declare-const rliteral5 l16_limb)

;; "rliteral_axiom"
(assert (= (l16_limbqtint rliteral5) 1584))

(declare-const rliteral6 l16_limb)

;; "rliteral_axiom"
(assert (= (l16_limbqtint rliteral6) 288))

(declare-const rliteral7 l16_limb)

;; "rliteral_axiom"
(assert (= (l16_limbqtint rliteral7) 1408))

(declare-const rliteral8 l16_limb)

;; "rliteral_axiom"
(assert (= (l16_limbqtint rliteral8) 3424))

(declare-const rliteral9 l16_limb)

;; "rliteral_axiom"
(assert (= (l16_limbqtint rliteral9) 2496))

(declare-const rliteral10 l16_limb)

;; "rliteral_axiom"
(assert (= (l16_limbqtint rliteral10) 3952))

(declare-const rliteral11 l16_limb)

;; "rliteral_axiom"
(assert (= (l16_limbqtint rliteral11) 2592))

(declare-const rliteral12 l16_limb)

;; "rliteral_axiom"
(assert (= (l16_limbqtint rliteral12) 3552))

(declare-const rliteral13 l16_limb)

;; "rliteral_axiom"
(assert (= (l16_limbqtint rliteral13) 3984))

(declare-const rliteral14 l16_limb)

;; "rliteral_axiom"
(assert (= (l16_limbqtint rliteral14) 320))

(declare-const rliteral15 l16_limb)

;; "rliteral_axiom"
(assert (= (l16_limbqtint rliteral15) 0))

(declare-const rliteral16 l16_limb)

;; "rliteral_axiom"
(assert (= (l16_limbqtint rliteral16) 256))

;; "def_axiom"
(assert
  (forall ((temp___375 Int) (temp___376 Int) (temp___377 Int) (temp___378 Int) (temp___379 Int) (temp___380 Int) (temp___381 Int) (temp___382 Int) (temp___383 Int) (temp___384 Int) (temp___385 Int) (temp___386 Int) (temp___387 Int) (temp___388 Int) (temp___389 Int) (temp___390 Int) (temp___391 Int) (temp___392 Int) (temp___393 Int) (temp___394 Int) (temp___395 Int) (temp___396 Int) (temp___397 Int) (temp___398 Int) (temp___399 Int) (temp___400 Int) (temp___401 Int) (temp___402 Int) (temp___403 Int) (temp___404 Int) (temp___405 Int) (temp___406 Int))
    (let ((temp___407 (ada___sparknacl__sign__l16__aggregate_def
                        temp___375
                        temp___376
                        temp___377
                        temp___378
                        temp___379
                        temp___380
                        temp___381
                        temp___382
                        temp___383
                        temp___384
                        temp___385
                        temp___386
                        temp___387
                        temp___388
                        temp___389
                        temp___390
                        temp___391
                        temp___392
                        temp___393
                        temp___394
                        temp___395
                        temp___396
                        temp___397
                        temp___398
                        temp___399
                        temp___400
                        temp___401
                        temp___402
                        temp___403
                        temp___404
                        temp___405
                        temp___406)))
      (and
        (and
          (and
            (= (get1 temp___407 0) rliteral)
            (= (get1 temp___407 1) rliteral1))
          (and
            (and
              (and
                (and
                  (and
                    (= (get1 temp___407 2) rliteral2)
                    (= (get1 temp___407 3) rliteral3))
                  (and
                    (= (get1 temp___407 4) rliteral4)
                    (= (get1 temp___407 5) rliteral5)))
                (and
                  (and
                    (= (get1 temp___407 6) rliteral6)
                    (= (get1 temp___407 7) rliteral7))
                  (and
                    (= (get1 temp___407 8) rliteral8)
                    (= (get1 temp___407 9) rliteral9))))
              (and
                (and
                  (and
                    (= (get1 temp___407 10) rliteral10)
                    (= (get1 temp___407 11) rliteral11))
                  (and
                    (= (get1 temp___407 12) rliteral12)
                    (= (get1 temp___407 13) rliteral13)))
                (and
                  (and
                    (= (get1 temp___407 14) rliteral12)
                    (= (get1 temp___407 15) rliteral14))
                  (= (get1 temp___407 16) rliteral15))))
            (and
              (and
                (and
                  (and
                    (= (get1 temp___407 17) rliteral15)
                    (= (get1 temp___407 18) rliteral15))
                  (and
                    (= (get1 temp___407 19) rliteral15)
                    (= (get1 temp___407 20) rliteral15)))
                (and
                  (and
                    (= (get1 temp___407 21) rliteral15)
                    (= (get1 temp___407 22) rliteral15))
                  (and
                    (= (get1 temp___407 23) rliteral15)
                    (= (get1 temp___407 24) rliteral15))))
              (and
                (and
                  (and
                    (= (get1 temp___407 25) rliteral15)
                    (= (get1 temp___407 26) rliteral15))
                  (and
                    (= (get1 temp___407 27) rliteral15)
                    (= (get1 temp___407 28) rliteral15)))
                (and
                  (and
                    (= (get1 temp___407 29) rliteral15)
                    (= (get1 temp___407 30) rliteral15))
                  (= (get1 temp___407 31) rliteral16))))))
        (=>
          (and
            (and (and (<= 0 0) (<= 0 31)) (and (<= 0 1) (<= 1 31)))
            (and
              (and
                (and
                  (and
                    (and (and (<= 0 2) (<= 2 31)) (and (<= 0 3) (<= 3 31)))
                    (and (and (<= 0 4) (<= 4 31)) (and (<= 0 5) (<= 5 31))))
                  (and
                    (and (and (<= 0 6) (<= 6 31)) (and (<= 0 7) (<= 7 31)))
                    (and (and (<= 0 8) (<= 8 31)) (and (<= 0 9) (<= 9 31)))))
                (and
                  (and
                    (and
                      (and (<= 0 10) (<= 10 31))
                      (and (<= 0 11) (<= 11 31)))
                    (and
                      (and (<= 0 12) (<= 12 31))
                      (and (<= 0 13) (<= 13 31))))
                  (and
                    (and
                      (and (<= 0 14) (<= 14 31))
                      (and (<= 0 15) (<= 15 31)))
                    (and (<= 0 16) (<= 16 31)))))
              (and
                (and
                  (and
                    (and
                      (and (<= 0 17) (<= 17 31))
                      (and (<= 0 18) (<= 18 31)))
                    (and
                      (and (<= 0 19) (<= 19 31))
                      (and (<= 0 20) (<= 20 31))))
                  (and
                    (and
                      (and (<= 0 21) (<= 21 31))
                      (and (<= 0 22) (<= 22 31)))
                    (and
                      (and (<= 0 23) (<= 23 31))
                      (and (<= 0 24) (<= 24 31)))))
                (and
                  (and
                    (and
                      (and (<= 0 25) (<= 25 31))
                      (and (<= 0 26) (<= 26 31)))
                    (and
                      (and (<= 0 27) (<= 27 31))
                      (and (<= 0 28) (<= 28 31))))
                  (and
                    (and
                      (and (<= 0 29) (<= 29 31))
                      (and (<= 0 30) (<= 30 31)))
                    (and (<= 0 31) (<= 31 31)))))))
          (has_bounds1 temp___407 0 31))))))

(declare-const xl map3)

(declare-const carry Int)

(declare-const adjustment Int)

(declare-const xl63 Int)

;; "xl63'unused"
(define-fun xl63qtunused () int__ref
  (int__refqtmk xl63))

;; "adjustment'unused"
(define-fun adjustmentqtunused () int__ref
  (int__refqtmk adjustment))

;; "carry'unused"
(define-fun carryqtunused () int__ref
  (int__refqtmk carry))

;; "xl'unused"
(define-fun xlqtunused () map__ref
  (map__refqtmk xl))

;; "Assume"
(assert (has_bounds x 0 63))

;; "Assume"
(assert (has_bounds1 l16 0 31))

(declare-const temp___2404 map2)

;; "H"
(assert (= (get1 temp___2404 0) rliteral))

;; "H"
(assert (= (get1 temp___2404 1) rliteral1))

;; "H"
(assert (= (get1 temp___2404 2) rliteral2))

;; "H"
(assert (= (get1 temp___2404 3) rliteral3))

;; "H"
(assert (= (get1 temp___2404 4) rliteral4))

;; "H"
(assert (= (get1 temp___2404 5) rliteral5))

;; "H"
(assert (= (get1 temp___2404 6) rliteral6))

;; "H"
(assert (= (get1 temp___2404 7) rliteral7))

;; "H"
(assert (= (get1 temp___2404 8) rliteral8))

;; "H"
(assert (= (get1 temp___2404 9) rliteral9))

;; "H"
(assert (= (get1 temp___2404 10) rliteral10))

;; "H"
(assert (= (get1 temp___2404 11) rliteral11))

;; "H"
(assert (= (get1 temp___2404 12) rliteral12))

;; "H"
(assert (= (get1 temp___2404 13) rliteral13))

;; "H"
(assert (= (get1 temp___2404 14) rliteral12))

;; "H"
(assert (= (get1 temp___2404 15) rliteral14))

;; "H"
(assert (= (get1 temp___2404 16) rliteral15))

;; "H"
(assert (= (get1 temp___2404 17) rliteral15))

;; "H"
(assert (= (get1 temp___2404 18) rliteral15))

;; "H"
(assert (= (get1 temp___2404 19) rliteral15))

;; "H"
(assert (= (get1 temp___2404 20) rliteral15))

;; "H"
(assert (= (get1 temp___2404 21) rliteral15))

;; "H"
(assert (= (get1 temp___2404 22) rliteral15))

;; "H"
(assert (= (get1 temp___2404 23) rliteral15))

;; "H"
(assert (= (get1 temp___2404 24) rliteral15))

;; "H"
(assert (= (get1 temp___2404 25) rliteral15))

;; "H"
(assert (= (get1 temp___2404 26) rliteral15))

;; "H"
(assert (= (get1 temp___2404 27) rliteral15))

;; "H"
(assert (= (get1 temp___2404 28) rliteral15))

;; "H"
(assert (= (get1 temp___2404 29) rliteral15))

;; "H"
(assert (= (get1 temp___2404 30) rliteral15))

;; "H"
(assert (= (get1 temp___2404 31) rliteral16))

;; "H"
(assert (has_bounds1 temp___2404 0 31))

;; "H"
(assert
  (= temp___2404 (ada___sparknacl__sign__l16__aggregate_def
                   3792
                   3376
                   3920
                   1472
                   416
                   1584
                   288
                   1408
                   3424
                   2496
                   3952
                   2592
                   3552
                   3984
                   3552
                   320
                   0
                   0
                   0
                   0
                   0
                   0
                   0
                   0
                   0
                   0
                   0
                   0
                   0
                   0
                   0
                   256)))

;; "ada___sparknacl__sign__l16__aggregate_def'result'unused"
(define-fun ada___sparknacl__sign__l16__aggregate_defqtresultqtunused 
  () map2
  temp___2404)

;; "Assume"
(assert (= temp___2404 l16))

;; "Assume"
(assert (has_bounds x 0 63))

;; "Assume"
(assert (has_bounds2 xl 0 63))

;; "Assume"
(assert
  (and
    (and
      (and
        (forall ((k Int))
          (=>
            (and (<= 0 k) (<= k 63))
            (let ((temp___2369 (to_rep (get x k))))
              (and (<= 0 temp___2369) (<= temp___2369 2081055)))))
        (forall ((k Int))
          (=> (and (<= 0 k) (<= k 63)) (<= 0 (to_rep2 (get2 xl k))))))
      (forall ((k Int))
        (=> (and (<= 0 k) (<= k 63)) (<= (to_rep2 (get2 xl k)) 2081055))))
    (forall ((k Int))
      (=>
        (and (<= 0 k) (<= k 63))
        (= (to_rep2 (get2 xl k)) (to_rep (get x k)))))))

;; "Assume"
(assert true)

;; "Assume"
(assert (in_range4 carry))

;; "Assume"
(assert true)

;; "Assume"
(assert (in_range3 adjustment))

;; "Assume"
(assert true)

;; "Assume"
(assert (in_range2 xl63))

(declare-const carry1 Int)

;; "carry'unused"
(define-fun carryqtunused1 () int__ref
  (int__refqtmk carry1))

;; "H"
(assert (= carry1 0))

;; "map__content'result'unused"
(define-fun map__contentqtresultqtunused () map3
  xl)

;; "o"
(define-fun o () xl_limb
  (get2 xl 63))

;; "get'result'unused"
(define-fun getqtresultqtunused () xl_limb
  o)

(declare-const o1 Int)

;; "Ensures"
(assert (= (to_rep2 o) o1))

;; "to_rep'result'unused"
(define-fun to_repqtresultqtunused () Int
  o1)

(declare-const xl631 Int)

;; "xl63'unused"
(define-fun xl63qtunused1 () int__ref
  (int__refqtmk xl631))

;; "H"
(assert (= xl631 o1))

(declare-const j Int)

;; "j'unused"
(define-fun jqtunused () int__ref
  (int__refqtmk j))

;; "H"
(assert (= j 31))

;; "int__content'result'unused"
(define-fun int__contentqtresultqtunused () Int
  j)

;; "o"
(define-fun o2 () Bool
  (ite (<= j 46) true false))

;; "infix <='result'unused"
(define-fun infix_lseqqtresultqtunused () Bool
  o2)

;; "int__content'result'unused"
(define-fun int__contentqtresultqtunused1 () Int
  j)

;; "o"
(define-fun o3 () Bool
  (ite (<= 31 j) true false))

;; "infix <='result'unused"
(define-fun infix_lseqqtresultqtunused1 () Bool
  o3)

;; "o"
(define-fun o4 () Bool
  (and o3 o2))

;; "andb'result'unused"
(define-fun andbqtresultqtunused () Bool
  o4)

;; "H"
(assert (= o4 true))

;; "temp___loop_entry_2327'unused"
(define-fun temp___loop_entry_2327qtunused () map3
  xl)

;; "map__content'result'unused"
(define-fun map__contentqtresultqtunused1 () map3
  xl)

;; "temp___loop_entry_2332'unused"
(define-fun temp___loop_entry_2332qtunused () map3
  xl)

;; "map__content'result'unused"
(define-fun map__contentqtresultqtunused2 () map3
  xl)

;; "temp___loop_entry_2325'unused"
(define-fun temp___loop_entry_2325qtunused () Int
  adjustment)

;; "int__content'result'unused"
(define-fun int__contentqtresultqtunused2 () Int
  adjustment)

;; "temp___loop_entry_2324'unused"
(define-fun temp___loop_entry_2324qtunused () Int
  carry1)

;; "int__content'result'unused"
(define-fun int__contentqtresultqtunused3 () Int
  carry1)

;; "temp___loop_entry_2322'unused"
(define-fun temp___loop_entry_2322qtunused () map3
  xl)

;; "map__content'result'unused"
(define-fun map__contentqtresultqtunused3 () map3
  xl)

;; "int__content'result'unused"
(define-fun int__contentqtresultqtunused4 () Int
  xl631)

;; "int__content'result'unused"
(define-fun int__contentqtresultqtunused5 () Int
  j)

;; "o"
(define-fun o5 () Int
  (- j 31))

;; "infix -'result'unused"
(define-fun infix_mnqtresultqtunused () Int
  o5)

;; "o"
(define-fun o6 () l16_limb
  (get1 l16 o5))

;; "get'result'unused"
(define-fun getqtresultqtunused1 () l16_limb
  o6)

(declare-const o7 Int)

;; "Ensures"
(assert (= (to_rep1 o6) o7))

;; "to_rep'result'unused"
(define-fun to_repqtresultqtunused1 () Int
  o7)

;; "o"
(define-fun o8 () Int
  (* o7 xl631))

;; "infix *'result'unused"
(define-fun infix_asqtresultqtunused () Int
  o8)

;; "Ensures"
(assert (in_range3 o8))

;; "range_check_'result'unused"
(define-fun range_check_qtresultqtunused () Int
  o8)

(declare-const adjustment1 Int)

;; "adjustment'unused"
(define-fun adjustmentqtunused1 () int__ref
  (int__refqtmk adjustment1))

;; "H"
(assert (= adjustment1 o8))

;; "int__content'result'unused"
(define-fun int__contentqtresultqtunused6 () Int
  adjustment1)

;; "int__content'result'unused"
(define-fun int__contentqtresultqtunused7 () Int
  carry1)

;; "int__content'result'unused"
(define-fun int__contentqtresultqtunused8 () Int
  j)

;; "map__content'result'unused"
(define-fun map__contentqtresultqtunused4 () map3
  xl)

;; "o"
(define-fun o9 () xl_limb
  (get2 xl j))

;; "get'result'unused"
(define-fun getqtresultqtunused2 () xl_limb
  o9)

(declare-const o10 Int)

;; "Ensures"
(assert (= (to_rep2 o9) o10))

;; "to_rep'result'unused"
(define-fun to_repqtresultqtunused2 () Int
  o10)

;; "o"
(define-fun o11 () Int
  (+ o10 carry1))

;; "infix +'result'unused"
(define-fun infix_plqtresultqtunused () Int
  o11)

;; "o"
(define-fun o12 () Int
  (- o11 adjustment1))

;; "infix -'result'unused"
(define-fun infix_mnqtresultqtunused1 () Int
  o12)

;; "Ensures"
(assert (in_range2 o12))

;; "range_check_'result'unused"
(define-fun range_check_qtresultqtunused1 () Int
  o12)

(declare-const o13 xl_limb)

;; "Ensures"
(assert (= (to_rep2 o13) o12))

;; "of_rep'result'unused"
(define-fun of_repqtresultqtunused () xl_limb
  o13)

;; "int__content'result'unused"
(define-fun int__contentqtresultqtunused9 () Int
  j)

;; "map__content'result'unused"
(define-fun map__contentqtresultqtunused5 () map3
  xl)

;; "o"
(define-fun o14 () map3
  (set xl j o13))

;; "set'result'unused"
(define-fun setqtresultqtunused () map3
  o14)

(declare-const xl1 map3)

;; "xl'unused"
(define-fun xlqtunused1 () map__ref
  (map__refqtmk xl1))

;; "H"
(assert (= xl1 o14))

;; "int__content'result'unused"
(define-fun int__contentqtresultqtunused10 () Int
  j)

;; "map__content'result'unused"
(define-fun map__contentqtresultqtunused6 () map3
  xl1)

;; "o"
(define-fun o15 () xl_limb
  (get2 xl1 j))

;; "get'result'unused"
(define-fun getqtresultqtunused3 () xl_limb
  o15)

(declare-const o16 Int)

;; "Ensures"
(assert (= (to_rep2 o15) o16))

;; "to_rep'result'unused"
(define-fun to_repqtresultqtunused3 () Int
  o16)

;; "o"
(define-fun o17 () Int
  (+ o16 128))

;; "infix +'result'unused"
(define-fun infix_plqtresultqtunused1 () Int
  o17)

;; "o"
(define-fun o18 () Int
  (asr_8 o17))

;; "H"
(assert (asr_8__function_guard o18 o17))

;; "H"
(assert (in_range o18))

;; "H"
(assert (= o18 (shift_right_arithmetic o17 8 64)))

;; "H"
(assert
  (ite (<= 0 o17)
    (= o18 (__cdiv o17 256))
    (= o18 (- (__cdiv (+ o17 1) 256) 1))))

;; "asr_8'result'unused"
(define-fun asr_8qtresultqtunused () Int
  o18)

;; "Ensures"
(assert (in_range4 o18))

;; "range_check_'result'unused"
(define-fun range_check_qtresultqtunused2 () Int
  o18)

(declare-const carry2 Int)

;; "carry'unused"
(define-fun carryqtunused2 () int__ref
  (int__refqtmk carry2))

;; "H"
(assert (= carry2 o18))

;; "int__content'result'unused"
(define-fun int__contentqtresultqtunused11 () Int
  carry2)

;; "o"
(define-fun o19 () Int
  (* carry2 256))

;; "infix *'result'unused"
(define-fun infix_asqtresultqtunused1 () Int
  o19)

;; "int__content'result'unused"
(define-fun int__contentqtresultqtunused12 () Int
  j)

;; "map__content'result'unused"
(define-fun map__contentqtresultqtunused7 () map3
  xl1)

;; "o"
(define-fun o20 () xl_limb
  (get2 xl1 j))

;; "get'result'unused"
(define-fun getqtresultqtunused4 () xl_limb
  o20)

(declare-const o21 Int)

;; "Ensures"
(assert (= (to_rep2 o20) o21))

;; "to_rep'result'unused"
(define-fun to_repqtresultqtunused4 () Int
  o21)

;; "o"
(define-fun o22 () Int
  (- o21 o19))

;; "infix -'result'unused"
(define-fun infix_mnqtresultqtunused2 () Int
  o22)

;; "Ensures"
(assert (in_range2 o22))

;; "range_check_'result'unused"
(define-fun range_check_qtresultqtunused3 () Int
  o22)

(declare-const o23 xl_limb)

;; "Ensures"
(assert (= (to_rep2 o23) o22))

;; "of_rep'result'unused"
(define-fun of_repqtresultqtunused1 () xl_limb
  o23)

;; "int__content'result'unused"
(define-fun int__contentqtresultqtunused13 () Int
  j)

;; "map__content'result'unused"
(define-fun map__contentqtresultqtunused8 () map3
  xl1)

;; "o"
(define-fun o24 () map3
  (set xl1 j o23))

;; "set'result'unused"
(define-fun setqtresultqtunused1 () map3
  o24)

(declare-const xl2 map3)

;; "xl'unused"
(define-fun xlqtunused2 () map__ref
  (map__refqtmk xl2))

;; "H"
(assert (= xl2 o24))

(declare-const usf Int)

(declare-const anyqtresultqtunused Int)

;; "H"
(assert (= anyqtresultqtunused usf))

(declare-const kqtunused Int)

;; "H"
(assert (= kqtunused usf))

(declare-const o25 Bool)

;; "H"
(assert (= o25 (ite (<= usf 63) true false)))

(declare-const infix_lseqqtresultqtunused2 Bool)

;; "H"
(assert (= infix_lseqqtresultqtunused2 o25))

(declare-const int__contentqtresultqtunused14 Int)

;; "H"
(assert (= int__contentqtresultqtunused14 j))

(declare-const o26 Int)

;; "H"
(assert (= o26 (+ j 1)))

(declare-const infix_plqtresultqtunused2 Int)

;; "H"
(assert (= infix_plqtresultqtunused2 o26))

(declare-const o27 Bool)

;; "H"
(assert (= o27 (ite (<= o26 usf) true false)))

(declare-const infix_lseqqtresultqtunused3 Bool)

;; "H"
(assert (= infix_lseqqtresultqtunused3 o27))

(declare-const andbqtresultqtunused1 Bool)

;; "H"
(assert (= andbqtresultqtunused1 (and o27 o25)))

;; "_f"
(define-fun usf1 () Bool
  (ite (forall ((k Int))
         (=>
           (and (<= (+ j 1) k) (<= k 63))
           (= (to_rep2 (get2 xl2 k)) (to_rep2 (get2 xl k)))))
    true
    false))

;; "any'result'unused"
(define-fun anyqtresultqtunused1 () Bool
  usf1)

(declare-const usf2 Int)

;; "any'result'unused"
(define-fun anyqtresultqtunused2 () Int
  usf2)

;; "k'unused"
(define-fun kqtunused1 () Int
  usf2)

;; "int__content'result'unused"
(define-fun int__contentqtresultqtunused15 () Int
  j)

;; "o"
(define-fun o28 () Bool
  (ite (<= usf2 j) true false))

;; "infix <='result'unused"
(define-fun infix_lseqqtresultqtunused4 () Bool
  o28)

;; "o"
(define-fun o29 () Bool
  (ite (<= 31 usf2) true false))

;; "infix <='result'unused"
(define-fun infix_lseqqtresultqtunused5 () Bool
  o29)

;; "o"
(define-fun o30 () Bool
  (and o29 o28))

;; "andb'result'unused"
(define-fun andbqtresultqtunused2 () Bool
  o30)

;; "H"
(assert (= o30 true))

;; Goal "def'vc"
;; File "sparknacl-sign.adb", line 286, characters 0-0
(assert
  (not (<= usf2 63)))

(check-sat)
